! Created Wed Oct 23 10:34:18 2024
# hz S ma R 50
! 2 Port Network Data from SP1.SP block
! freq  magS11  angS11  magS21  angS21  magS12  angS12  magS22  angS22  
!     
0      0.0127429528                  0        0.987257037                  0        0.987257037                  0       0.0127429528                  0
5000000      0.0361967455         48.2800087        0.978443474        -5.45978948        0.978443474        -5.45978948       0.0359655632         49.2149748
10000000      0.0602819393         50.8638794         0.97082622        -10.6317619         0.97082622        -10.6317619       0.0596595612         53.0275667
15000000       0.080645599         47.9709586        0.963487289        -15.5757592        0.963487289        -15.5757592       0.0794790124         51.4285731
20000000      0.0983026147         44.2208063        0.957228751        -20.4141187        0.957228751        -20.4141187       0.0964495824          49.061973
25000000       0.114081113         40.1104522        0.951740973        -25.2047745        0.951740973        -25.2047745        0.111416564         46.4276839
30000000       0.128221434          35.704241        0.946737768        -29.9678995        0.946737768        -29.9678995        0.124628931         43.5954447
35000000       0.140712908         31.0391815        0.942092008        -34.7114234        0.942092008        -34.7114234        0.136079645         40.6150531
40000000       0.151478993         26.1504747        0.937774255        -39.4409113        0.937774255        -39.4409113        0.145694889         37.5411214
45000000       0.160445744         21.0639604        0.933795567         -44.162426        0.933795567         -44.162426        0.153404311          34.424741
50000000       0.167561285         15.7925616        0.930174705        -48.8829963        0.930174705        -48.8829963        0.159160792         31.3101162
55000000        0.17279843         10.3363314        0.926922137        -53.6103835        0.926922137        -53.6103835        0.162942753         28.2357107
60000000       0.176153164          4.6836265        0.924033396        -58.3527108        0.924033396        -58.3527108          0.1647522         25.2373386
65000000       0.177643603        -1.18787262        0.921487189        -63.1181257        0.921487189        -63.1181257        0.164613385         22.3519695
70000000       0.177310926        -7.31079436        0.919245808        -67.9145281        0.919245808        -67.9145281        0.162573722         19.6219471
75000000        0.17522267        -13.7285177        0.917256602        -72.7493577        0.917256602        -72.7493577        0.158707461          17.099798
80000000       0.171478366         -20.496445        0.915454014        -77.6294248        0.915454014        -77.6294248        0.153122344         14.8540671
85000000       0.166217487         -27.684029        0.913762033        -82.5607718        0.913762033        -82.5607718        0.145969632         12.9767729
90000000       0.159629635        -35.3772831        0.912097118        -87.5485643        0.912097118        -87.5485643        0.137458236         11.5930868
95000000       0.151966781         -43.681029        0.910371646        -92.5970126        0.910371646        -92.5970126        0.127874207         10.8733867
100000000       0.143556833        -52.7190826        0.908497941         -97.709338        0.908497941         -97.709338         0.11760713         11.0459022
105000000       0.134816327        -62.6285485        0.906392844        -102.887796        0.906392844        -102.887796        0.107183843         12.4022237
110000000       0.126256675        -73.5412524        0.903982638        -108.133776        0.903982638        -108.133776       0.0973034927         15.2732003
115000000       0.118472228        -85.5427144        0.901208018        -113.447996        0.901208018        -113.447996         0.08884761         19.9274469
120000000       0.112090903        -98.6034216        0.898028665        -118.830801        0.898028665        -118.830801       0.0827981146         26.3402756
125000000        0.10766871        -112.499938        0.894426848        -124.282583        0.894426848        -124.282583       0.0799754863         33.9071993
130000000       0.105536238        -126.782745        0.890409455        -129.804311        0.890409455        -129.804311       0.0806412288         41.4478097
135000000       0.105659327        -140.854499         0.88600781        -135.398177         0.88600781        -135.398177       0.0842738078         47.7363792
140000000       0.107602837        -154.139867        0.881274722        -141.068321        0.881274722        -141.068321       0.0897575803         52.0773171
145000000       0.110625725        -166.228968        0.876278237        -146.821627        0.876278237        -146.821627       0.0957698509         54.3709773
150000000       0.113842983        -176.902915        0.871091627         -152.66854        0.871091627         -152.66854        0.101041625          54.836526
155000000       0.116373373         173.940104        0.865779137        -158.623866        0.865779137        -158.623866        0.104432839         53.7596384
160000000        0.11744801         166.393243         0.86037688        -164.707474         0.86037688        -164.707474        0.104912223         51.3661991
165000000       0.116511847         160.649841        0.854868147        -170.944831        0.854868147        -170.944831        0.101515619           47.76781
170000000       0.113386847         157.115687        0.849152362        -177.367181        0.849152362        -177.367181       0.0933167567         42.9048615
175000000       0.108606634         156.519962        0.843007358         175.988838        0.843007358         175.988838       0.0794352106         36.3736095
180000000        0.10406586         159.881366        0.836046206         169.082534        0.836046206         169.082534        0.059163023         26.6725426
185000000       0.103872729         167.755131        0.827673592         161.871964        0.827673592         161.871964       0.0329226524         5.81675312
190000000       0.114019646         178.310701        0.817053768         154.318833        0.817053768         154.318833       0.0200941573        -85.9462461
195000000       0.139039496        -172.763921        0.803112768         146.396038        0.803112768         146.396038       0.0584226786        -136.985777
200000000       0.179186971        -168.276798        0.784608627         138.097886        0.784608627         138.097886        0.112299254        -152.870359
205000000       0.231909394        -168.094156        0.760304408         129.451698        0.760304408         129.451698        0.175300255        -163.915394
210000000       0.293826879        -171.024973        0.729252552         120.527592        0.729252552         120.527592        0.245187805         -173.71502
215000000       0.361265602        -175.980136        0.691134432         111.441468        0.691134432         111.441468        0.319237582         176.935554
220000000       0.430410478         177.841808        0.646520646         102.346666        0.646520646         102.346666        0.394175734         167.864413
225000000       0.497660998         171.018511         0.59689691         93.4137984         0.59689691         93.4137984        0.466659653         159.100643
230000000       0.560105732         163.967741        0.544395864         84.8043981        0.544395864         84.8043981        0.533872198         150.736184
235000000       0.615859178         156.983609        0.491339475         76.6477499        0.491339475         76.6477499        0.593944838         142.863237
240000000       0.664112044          150.25945        0.439794134          69.028301        0.439794134          69.028301        0.646063083         135.545405
245000000       0.704930475         143.908237        0.391296214         61.9851554        0.391296214         61.9851554        0.690294329         128.809657
250000000       0.738944424         137.983076        0.346782886         55.5200626        0.346782886         55.5200626        0.727285564         122.650547
255000000       0.767054498          132.49619        0.306668574         49.6087414        0.306668574         49.6087414        0.757968742         117.039514
260000000       0.790220945         127.434492        0.270983535         44.2116338        0.270983535         44.2116338         0.78334429          111.93449
265000000       0.809341059         122.771013        0.239513506         39.2822372        0.239513506         39.2822372         0.80435298         107.287565
270000000       0.825193905         118.472552        0.211911531         34.7727075        0.211911531         34.7727075        0.821816577         103.050185
275000000       0.838426745         114.504388         0.18777583         30.6371911         0.18777583         30.6371911        0.836421847          99.176229
280000000       0.849563118          110.83294        0.166698512         26.8335376        0.166698512         26.8335376        0.848727509         95.6235618
285000000       0.859019845         107.427108        0.148293006         23.3239746        0.148293006         23.3239746        0.859180942         92.3546033
290000000       0.867125939         104.258813        0.132207435         20.0751754        0.132207435         20.0751754        0.868137303          89.336329
295000000        0.87414017         101.303085        0.118129407         17.0580045        0.118129407         17.0580045        0.875877502         86.5399695
300000000       0.880266005         98.5379102        0.105785923         14.2471159        0.105785923         14.2471159        0.882623665         83.9405793
305000000       0.885663771         95.9439732       0.0949407606         11.6205058       0.0949407606         11.6205058        0.888551793         81.5165694
310000000       0.890460274         93.5043559       0.0853907504         9.15907431       0.0853907504         9.15907431        0.893801859         79.2492559
315000000       0.894756305         91.2042413       0.0769617413         6.84622193       0.0769617413         6.84622193        0.898485712         77.1224476
320000000       0.898632427          89.030637       0.0695046906           4.667492       0.0695046906           4.667492         0.90269323         75.1220834
325000000       0.902153435         86.9721268        0.062892081         2.61025986        0.062892081         2.61025986        0.906497065         73.2359178
330000000       0.905371784         85.0186547       0.0570147469        0.663466664       0.0570147469        0.663466664        0.909956315         71.4532529
335000000       0.908330222          83.161336       0.0517791189        -1.18260688       0.0517791189        -1.18260688         0.91311937         69.7647115
340000000       0.911063823         81.3922974       0.0471048634        -2.93653209       0.0471048634        -2.93653209        0.916026102         68.1620448
345000000       0.913601559         79.7045387       0.0429228747        -4.60589411       0.0429228747        -4.60589411        0.918709582         66.6379715
350000000       0.915967525         78.0918164       0.0391735791        -6.19742848       0.0391735791        -6.19742848        0.921197415         65.1860411
355000000       0.918181892         76.5485436       0.0358055025        -7.71713664       0.0358055025        -7.71713664        0.923512785         63.8005197
360000000       0.920261654         75.0697057       0.0327740658        -9.17038358       0.0327740658        -9.17038358        0.925675287         62.4762928
365000000        0.92222122         73.6507874        0.030040569        -10.5619807        0.030040569        -10.5619807        0.927701575         61.2087836
370000000       0.924072882          72.287711       0.0275713362        -11.8962563       0.0275713362        -11.8962563        0.929605888         59.9938829
375000000        0.92582719         70.9767839       0.0253369947        -13.1771158       0.0253369947        -13.1771158        0.931400468         58.8278907
380000000       0.927493247         69.7146523       0.0233118646        -14.4080927       0.0233118646        -14.4080927        0.933095894         57.7074652
385000000       0.929078955         68.4982624       0.0214734441        -15.5923931       0.0214734441        -15.5923931        0.934701355         56.6295795
390000000       0.930591206         67.3248268       0.0198019714        -16.7329337       0.0198019714        -16.7329337        0.936224873         55.5914846
395000000       0.932036044         66.1917944       0.0182800539         -17.832374       0.0182800539         -17.832374        0.937673481         54.5906777
400000000       0.933418793         65.0968257       0.0168923509        -18.8931453       0.0168923509        -18.8931453        0.939053375         53.6248739
405000000       0.934744166           64.03777       0.0156253044        -19.9174751       0.0156253044        -19.9174751        0.940370038         52.6919828
410000000       0.936016354         63.0126462       0.0144669072        -20.9074083       0.0144669072        -20.9074083        0.941628337         51.7900872
415000000       0.937239097         62.0196256       0.0134065054        -21.8648267       0.0134065054        -21.8648267        0.942832613         50.9174254
420000000       0.938415747         61.0570173       0.0124346278        -22.7914646       0.0124346278        -22.7914646        0.943986752         50.0723746
425000000       0.939549319         60.1232544       0.0115428391         -23.688924       0.0115428391         -23.688924        0.945094241         49.2534376
430000000       0.940642539         59.2168828       0.0107236136         -24.558687       0.0107236136         -24.558687        0.946158226         48.4592302
435000000       0.941697871         58.3365506       0.0099702253         -25.402127       0.0099702253         -25.402127        0.947181546         47.6884702
440000000       0.942717559         57.4809989      0.00927665314        -26.2205191      0.00927665314        -26.2205191        0.948166778         46.9399681
445000000       0.943703646         56.6490538      0.00863749833        -27.0150485      0.00863749833        -27.0150485        0.949116264         46.2126184
450000000       0.944658001         55.8396188      0.00804791249        -27.7868188      0.00804791249        -27.7868188        0.950032141         45.5053921
455000000       0.945582338         55.0516682      0.00750353496        -28.5368589      0.00750353496        -28.5368589        0.950916359         44.8173299
460000000       0.946478232         54.2842417      0.00700043796        -29.2661294      0.00700043796        -29.2661294        0.951770709         44.1475362
465000000       0.947347134         53.5364386      0.00653507863        -29.9755281      0.00653507863        -29.9755281        0.952596832         43.4951736
470000000       0.948190384         52.8074132      0.00610425685        -30.6658953      0.00610425685        -30.6658953        0.953396242         42.8594583
475000000       0.949009224         52.0963704      0.00570507822        -31.3380182      0.00570507822        -31.3380182        0.954170333         42.2396554
480000000       0.949804804         51.4025621      0.00533492148        -31.9926353      0.00533492148        -31.9926353        0.954920397         41.6350752
485000000       0.950578194         50.7252833      0.00499140972        -32.6304398      0.00499140972        -32.6304398        0.955647628         41.0450698
490000000       0.951330392         50.0638692      0.00467238494        -33.2520833      0.00467238494        -33.2520833        0.956353135         40.4690293
495000000       0.952062326          49.417692      0.00437588561        -33.8581787      0.00437588561        -33.8581787        0.957037949         39.9063797
500000000       0.952774866         48.7861584      0.00410012666         -34.449303      0.00410012666         -34.449303         0.95770303         39.3565794
